Instance: E256-14k.dat
Class:  2
255 --- number of customers (no depot)
47 --- number of vehicles
387 --- number of items
Capacity - height - width of vehicles
  1000     40     20
Node - x - y - demand  Readytime Duetime
  0.00    0.00 -15.00   0.00 0       180.00       
  1.00   -1.00 -14.00 300.00 131.00  136.00       
  2.00    1.00 -14.00 300.00 140.00  145.00       
  3.00   -2.00 -13.00 180.00  80.00   89.00       
  4.00    0.00 -13.00 300.00   7.00   30.00       
  5.00    2.00 -13.00 180.00  35.00   49.00       
  6.00   -3.00 -12.00 128.00 143.00  148.00       
  7.00   -1.00 -12.00 180.00 107.00  125.00       
  8.00    1.00 -12.00 180.00  68.00   79.00       
  9.00    3.00 -12.00 128.00  36.00   46.00       
 10.00   -4.00 -11.00 100.00  56.00   69.00       
 11.00   -2.00 -11.00 128.00  53.00   70.00       
 12.00    0.00 -11.00 180.00  34.00   42.00       
 13.00    2.00 -11.00 128.00  60.00   76.00       
 14.00    4.00 -11.00 100.00 133.00  144.00       
 15.00   -5.00 -10.00  81.00  22.00   30.00       
 16.00   -3.00 -10.00 100.00 117.00  123.00       
 17.00   -1.00 -10.00 128.00  85.00   98.00       
 18.00    1.00 -10.00 128.00   9.00   30.00       
 19.00    3.00 -10.00 100.00  24.00   43.00       
 20.00    5.00 -10.00  81.00 115.00  124.00       
 21.00   -6.00  -9.00  69.00   8.00   30.00       
 22.00   -4.00  -9.00  81.00  68.00   76.00       
 23.00   -2.00  -9.00 100.00  29.00   42.00       
 24.00    0.00  -9.00 128.00 136.00  148.00       
 25.00    2.00  -9.00 100.00  55.00   69.00       
 26.00    4.00  -9.00  81.00 126.00  133.00       
 27.00    6.00  -9.00  69.00  76.00   81.00       
 28.00   -7.00  -8.00  60.00  42.00   50.00       
 29.00   -5.00  -8.00  69.00  45.00   57.00       
 30.00   -3.00  -8.00  81.00 133.00  151.00       
 31.00   -1.00  -8.00 100.00  98.00  105.00       
 32.00    1.00  -8.00 100.00  77.00   91.00       
 33.00    3.00  -8.00  81.00 137.00  151.00       
 34.00    5.00  -8.00  69.00  53.00   61.00       
 35.00    7.00  -8.00  60.00 103.00  118.00       
 36.00   -8.00  -7.00  52.00  27.00   47.00       
 37.00   -6.00  -7.00  60.00  95.00  112.00       
 38.00   -4.00  -7.00  69.00  74.00   91.00       
 39.00   -2.00  -7.00  81.00  33.00   40.00       
 40.00    0.00  -7.00 100.00  93.00   98.00       
 41.00    2.00  -7.00  81.00 106.00  111.00       
 42.00    4.00  -7.00  69.00 111.00  121.00       
 43.00    6.00  -7.00  60.00 109.00  120.00       
 44.00    8.00  -7.00  52.00  18.00   30.00       
 45.00   -9.00  -6.00  47.00  62.00   80.00       
 46.00   -7.00  -6.00  52.00  91.00  101.00       
 47.00   -5.00  -6.00  60.00 140.00  150.00       
 48.00   -3.00  -6.00  69.00  25.00   44.00       
 49.00   -1.00  -6.00  81.00  25.00   40.00       
 50.00    1.00  -6.00  81.00  55.00   73.00       
 51.00    3.00  -6.00  69.00 110.00  117.00       
 52.00    5.00  -6.00  60.00  83.00  101.00       
 53.00    7.00  -6.00  52.00 109.00  117.00       
 54.00    9.00  -6.00  47.00  82.00  100.00       
 55.00  -10.00  -5.00  42.00  68.00   87.00       
 56.00   -8.00  -5.00  47.00  57.00   67.00       
 57.00   -6.00  -5.00  52.00  84.00   94.00       
 58.00   -4.00  -5.00  60.00  79.00   90.00       
 59.00   -2.00  -5.00  69.00  64.00   79.00       
 60.00    0.00  -5.00  81.00 128.00  133.00       
 61.00    2.00  -5.00  69.00  83.00   94.00       
 62.00    4.00  -5.00  60.00  99.00  107.00       
 63.00    6.00  -5.00  52.00  22.00   39.00       
 64.00    8.00  -5.00  47.00  83.00   89.00       
 65.00   10.00  -5.00  42.00  76.00   82.00       
 66.00  -11.00  -4.00  39.00 125.00  138.00       
 67.00   -9.00  -4.00  42.00  78.00   93.00       
 68.00   -7.00  -4.00  47.00  80.00   97.00       
 69.00   -5.00  -4.00  52.00  52.00   58.00       
 70.00   -3.00  -4.00  60.00  48.00   57.00       
 71.00   -1.00  -4.00  69.00  27.00   33.00       
 72.00    1.00  -4.00  69.00  42.00   59.00       
 73.00    3.00  -4.00  60.00  58.00   78.00       
 74.00    5.00  -4.00  52.00  52.00   70.00       
 75.00    7.00  -4.00  47.00  78.00   96.00       
 76.00    9.00  -4.00  42.00  27.00   47.00       
 77.00   11.00  -4.00  39.00  93.00  113.00       
 78.00  -12.00  -3.00  36.00  30.00   40.00       
 79.00  -10.00  -3.00  39.00  96.00  108.00       
 80.00   -8.00  -3.00  42.00  40.00   54.00       
 81.00   -6.00  -3.00  47.00 149.00  154.00       
 82.00   -4.00  -3.00  52.00   6.00   30.00       
 83.00   -2.00  -3.00  60.00  37.00   54.00       
 84.00    0.00  -3.00  69.00  61.00   73.00       
 85.00    2.00  -3.00  60.00 146.00  161.00       
 86.00    4.00  -3.00  52.00  98.00  111.00       
 87.00    6.00  -3.00  47.00  30.00   48.00       
 88.00    8.00  -3.00  42.00  78.00   88.00       
 89.00   10.00  -3.00  39.00 111.00  118.00       
 90.00   12.00  -3.00  36.00  59.00   66.00       
 91.00  -13.00  -2.00  33.00 108.00  124.00       
 92.00  -11.00  -2.00  36.00  84.00  103.00       
 93.00   -9.00  -2.00  39.00  55.00   70.00       
 94.00   -7.00  -2.00  42.00  97.00  105.00       
 95.00   -5.00  -2.00  47.00 131.00  142.00       
 96.00   -3.00  -2.00  52.00  59.00   68.00       
 97.00   -1.00  -2.00  60.00 115.00  124.00       
 98.00    1.00  -2.00  60.00  27.00   38.00       
 99.00    3.00  -2.00  52.00  95.00  111.00       
100.00    5.00  -2.00  47.00 139.00  153.00       
101.00    7.00  -2.00  42.00 129.00  140.00       
102.00    9.00  -2.00  39.00   6.00   30.00       
103.00   11.00  -2.00  36.00  30.00   43.00       
104.00   13.00  -2.00  33.00  28.00   37.00       
105.00  -14.00  -1.00  31.00  96.00  116.00       
106.00  -12.00  -1.00  33.00  52.00   57.00       
107.00  -10.00  -1.00  36.00  58.00   70.00       
108.00   -8.00  -1.00  39.00 124.00  138.00       
109.00   -6.00  -1.00  42.00  93.00  112.00       
110.00   -4.00  -1.00  47.00 118.00  124.00       
111.00   -2.00  -1.00  52.00  90.00  104.00       
112.00    0.00  -1.00  60.00 118.00  129.00       
113.00    2.00  -1.00  52.00 133.00  146.00       
114.00    4.00  -1.00  47.00  40.00   51.00       
115.00    6.00  -1.00  42.00  35.00   43.00       
116.00    8.00  -1.00  39.00  95.00  110.00       
117.00   10.00  -1.00  36.00  60.00   65.00       
118.00   12.00  -1.00  33.00  19.00   30.00       
119.00   14.00  -1.00  31.00  90.00  100.00       
120.00  -15.00   0.00  29.00  79.00   88.00       
121.00  -13.00   0.00  31.00 107.00  112.00       
122.00  -11.00   0.00  33.00 136.00  146.00       
123.00   -9.00   0.00  36.00  70.00   88.00       
124.00   -7.00   0.00  39.00  57.00   76.00       
125.00   -5.00   0.00  42.00 149.00  158.00       
126.00   -3.00   0.00  47.00  94.00  109.00       
127.00   -1.00   0.00  52.00 120.00  127.00       
128.00    1.00   0.00  52.00  83.00   97.00       
129.00    3.00   0.00  47.00  67.00   74.00       
130.00    5.00   0.00  42.00  30.00   39.00       
131.00    7.00   0.00  39.00 150.00  163.00       
132.00    9.00   0.00  36.00  84.00   90.00       
133.00   11.00   0.00  33.00  55.00   70.00       
134.00   13.00   0.00  31.00 130.00  138.00       
135.00   15.00   0.00  29.00  30.00   44.00       
136.00  -14.00   1.00  29.00 134.00  146.00       
137.00  -12.00   1.00  31.00 133.00  138.00       
138.00  -10.00   1.00  33.00 112.00  117.00       
139.00   -8.00   1.00  36.00 127.00  147.00       
140.00   -6.00   1.00  39.00  59.00   68.00       
141.00   -4.00   1.00  42.00  34.00   50.00       
142.00   -2.00   1.00  47.00 109.00  121.00       
143.00    0.00   1.00  52.00  82.00   87.00       
144.00    2.00   1.00  47.00 118.00  136.00       
145.00    4.00   1.00  42.00  38.00   48.00       
146.00    6.00   1.00  39.00  83.00  101.00       
147.00    8.00   1.00  36.00 154.00  163.00       
148.00   10.00   1.00  33.00  25.00   31.00       
149.00   12.00   1.00  31.00  53.00   66.00       
150.00   14.00   1.00  29.00  96.00  102.00       
151.00  -13.00   2.00  29.00 149.00  163.00       
152.00  -11.00   2.00  31.00 118.00  125.00       
153.00   -9.00   2.00  33.00  71.00   78.00       
154.00   -7.00   2.00  36.00  11.00   30.00       
155.00   -5.00   2.00  39.00   8.00   30.00       
156.00   -3.00   2.00  42.00  51.00   60.00       
157.00   -1.00   2.00  47.00 119.00  130.00       
158.00    1.00   2.00  47.00 107.00  121.00       
159.00    3.00   2.00  42.00  23.00   32.00       
160.00    5.00   2.00  39.00 118.00  132.00       
161.00    7.00   2.00  36.00  34.00   54.00       
162.00    9.00   2.00  33.00  15.00   30.00       
163.00   11.00   2.00  31.00 110.00  128.00       
164.00   13.00   2.00  29.00  99.00  104.00       
165.00  -12.00   3.00  29.00  22.00   30.00       
166.00  -10.00   3.00  31.00 149.00  164.00       
167.00   -8.00   3.00  33.00  34.00   50.00       
168.00   -6.00   3.00  36.00  88.00   98.00       
169.00   -4.00   3.00  39.00  84.00   96.00       
170.00   -2.00   3.00  42.00  18.00   30.00       
171.00    0.00   3.00  47.00  27.00   36.00       
172.00    2.00   3.00  42.00  72.00   82.00       
173.00    4.00   3.00  39.00  64.00   81.00       
174.00    6.00   3.00  36.00 105.00  121.00       
175.00    8.00   3.00  33.00  35.00   41.00       
176.00   10.00   3.00  31.00 113.00  126.00       
177.00   12.00   3.00  29.00  57.00   73.00       
178.00  -11.00   4.00  29.00 118.00  138.00       
179.00   -9.00   4.00  31.00  77.00   96.00       
180.00   -7.00   4.00  33.00 109.00  126.00       
181.00   -5.00   4.00  36.00 135.00  146.00       
182.00   -3.00   4.00  39.00  22.00   31.00       
183.00   -1.00   4.00  42.00  43.00   51.00       
184.00    1.00   4.00  42.00 140.00  148.00       
185.00    3.00   4.00  39.00  42.00   60.00       
186.00    5.00   4.00  36.00 127.00  139.00       
187.00    7.00   4.00  33.00   8.00   30.00       
188.00    9.00   4.00  31.00  86.00  101.00       
189.00   11.00   4.00  29.00  74.00   87.00       
190.00  -10.00   5.00  29.00  25.00   34.00       
191.00   -8.00   5.00  31.00  66.00   78.00       
192.00   -6.00   5.00  33.00   5.00   30.00       
193.00   -4.00   5.00  36.00  72.00   78.00       
194.00   -2.00   5.00  39.00  24.00   42.00       
195.00    0.00   5.00  42.00  49.00   67.00       
196.00    2.00   5.00  39.00 129.00  142.00       
197.00    4.00   5.00  36.00  79.00   90.00       
198.00    6.00   5.00  33.00  21.00   39.00       
199.00    8.00   5.00  31.00  94.00  107.00       
200.00   10.00   5.00  29.00  69.00   80.00       
201.00   -9.00   6.00  29.00 103.00  121.00       
202.00   -7.00   6.00  31.00  30.00   40.00       
203.00   -5.00   6.00  33.00  47.00   61.00       
204.00   -3.00   6.00  36.00  13.00   30.00       
205.00   -1.00   6.00  39.00  93.00  107.00       
206.00    1.00   6.00  39.00 101.00  110.00       
207.00    3.00   6.00  36.00 120.00  134.00       
208.00    5.00   6.00  33.00  26.00   38.00       
209.00    7.00   6.00  31.00  26.00   36.00       
210.00    9.00   6.00  29.00   3.00   30.00       
211.00   -8.00   7.00  29.00 128.00  139.00       
212.00   -6.00   7.00  31.00 118.00  138.00       
213.00   -4.00   7.00  33.00  22.00   34.00       
214.00   -2.00   7.00  36.00 115.00  135.00       
215.00    0.00   7.00  39.00  40.00   45.00       
216.00    2.00   7.00  36.00 123.00  143.00       
217.00    4.00   7.00  33.00 116.00  134.00       
218.00    6.00   7.00  31.00 103.00  118.00       
219.00    8.00   7.00  29.00  44.00   56.00       
220.00   -7.00   8.00  29.00 116.00  134.00       
221.00   -5.00   8.00  31.00  12.00   30.00       
222.00   -3.00   8.00  33.00  57.00   67.00       
223.00   -1.00   8.00  36.00  73.00   86.00       
224.00    1.00   8.00  36.00  76.00   96.00       
225.00    3.00   8.00  33.00  41.00   52.00       
226.00    5.00   8.00  31.00  37.00   56.00       
227.00    7.00   8.00  29.00  60.00   79.00       
228.00   -6.00   9.00  29.00  20.00   39.00       
229.00   -4.00   9.00  31.00  65.00   72.00       
230.00   -2.00   9.00  33.00   8.00   30.00       
231.00    0.00   9.00  36.00 151.00  156.00       
232.00    2.00   9.00  33.00  13.00   30.00       
233.00    4.00   9.00  31.00  71.00   91.00       
234.00    6.00   9.00  29.00 145.00  152.00       
235.00   -5.00  10.00  29.00 138.00  148.00       
236.00   -3.00  10.00  31.00  54.00   68.00       
237.00   -1.00  10.00  33.00  60.00   65.00       
238.00    1.00  10.00  33.00  89.00  106.00       
239.00    3.00  10.00  31.00 118.00  130.00       
240.00    5.00  10.00  29.00 122.00  139.00       
241.00   -4.00  11.00  29.00  73.00   79.00       
242.00   -2.00  11.00  31.00  81.00   90.00       
243.00    0.00  11.00  33.00  38.00   45.00       
244.00    2.00  11.00  31.00 137.00  142.00       
245.00    4.00  11.00  29.00  62.00   74.00       
246.00   -3.00  12.00  29.00  34.00   44.00       
247.00   -1.00  12.00  31.00  13.00   33.00       
248.00    1.00  12.00  31.00 127.00  133.00       
249.00    3.00  12.00  29.00 118.00  124.00       
250.00   -2.00  13.00  29.00  26.00   45.00       
251.00    0.00  13.00  31.00 142.00  149.00       
252.00    2.00  13.00  29.00 115.00  131.00       
253.00   -1.00  14.00  29.00  88.00  104.00       
254.00    1.00  14.00  29.00  27.00   40.00
255.00    0.00  15.00  29.00  46.00   59.00
Node - number of items - h - w for each item
    0   0
    1   4    7    7    4    6   29    4    9    3
    2   1    5    7
    3   2   13    6   14    3
    4   4    8    9    5    4   28    3   15    2
    5   3    5    8    7    6   15    4
    6   1   14    7
    7   2   10    6    6    6
    8   1   15    6
    9   3    8    9    5    9    5    5
   10   4    4   13    7   10   28    3   13    3
   11   1   15    3
   12   2    7    6   20    3
   13   2   17    3   14    3
   14   3    5   14    6   12   16    2
   15   1    4    7
   16   1   10    7
   17   2   14    6    4    6
   18   4    5   13   12    7   12    6   11    3
   19   2    5    8    7    3
   20   3    4   11   12    7   23    3
   21   3   27    3   22    3   13    2
   22   4   10    7    7    7    9    6   11    4
   23   1    9    6
   24   1    4   12
   25   3   14    7   14    2    8    2
   26   4    5   12    6    9   11    5   19    3
   27   4    7   13    8   12    5    9   11    2
   28   3    6   14    7    8    7    2
   29   4    4   13    6    5   20    3   16    2
   30   1    5    8
   31   4    8   12    7    5   16    4   17    2
   32   1   12    8
   33   4    6   12   12    7   17    4   31    3
   34   2    4   13    7    7
   35   3    4    5   31    4   22    3
   36   1    7   10
   37   4    6    6    7    5    6    4   17    2
   38   2   14    5    6    5
   39   3    6    8    4    6    9    3
   40   2   25    3   12    3
   41   3    6   11   13    3   30    2
   42   4    8    5   25    4    9    4   30    3
   43   3   10    8    6    6    5    3
   44   3    7    6   12    3    6    3
   45   4    5   13    5   12   10    4   29    2
   46   4   14    6    8    4   31    3    8    3
   47   2    6    7   22    3
   48   4    5   13    6   12    5   10    6    6
   49   2   13    7    6    7
   50   1   23    3
   51   3   15    7   29    4   18    3
   52   1    7    9
   53   3    5   13    6    6   24    2
   54   4    6   12   14    6   12    6   16    3
   55   2    6   11    5   11
   56   4    5   10    8    6    8    4   30    3
   57   2    8   13   26    2
   58   1    8    7
   59   2    8    6    5    6
   60   3    8   10   11    8    6    8
   61   2    4    6   30    2
   62   1   14    3
   63   2    4    5   13    3
   64   2    7    7   14    3
   65   1   28    4
   66   1   15    6
   67   3   13    7   26    3   20    3
   68   3    5   10    4    9   14    7
   69   4    6    8    4    7   22    3   17    3
   70   1   16    5
   71   4    7    6   30    3   26    3   20    3
   72   3    6    8    5    6   10    5
   73   3    4    7   14    5   16    3
   74   2   11    5   31    3
   75   4    5   14    5   12    5    7   18    3
   76   2    6    3   31    2
   77   2    6   11   17    3
   78   2    4   13    5   10
   79   3    6   14   26    3   17    3
   80   3    7    9    6    7    7    3
   81   3    5    8    6    7    4    6
   82   4    5   13   16    8   14    5   23    2
   83   2    6    9   27    4
   84   2    5   11   21    2
   85   4    7    9   13    7    7    6   13    3
   86   4    5    8   10    4    9    4   31    3
   87   3    5    8    8    6   12    4
   88   2    4    8    4    6
   89   1    7    9
   90   2   15    3   31    2
   91   2   31    3   26    3
   92   1    6    8
   93   3    6   13    6    6   28    3
   94   3    5   14    5    8   15    2
   95   2    6   11   20    3
   96   4    7   11   15    4    9    4   14    2
   97   1   25    3
   98   2    6    6   15    3
   99   3   10    4   27    3   15    2
  100   3   15    4    5    4   13    3
  101   3   26    4    6    4   25    2
  102   4    6   12   30    2   18    2   16    2
  103   1    6   12
  104   3   26    3   19    3   21    2
  105   2    7   14    5    4
  106   4    7    9    5    8   25    4   15    3
  107   4    9    6    4    6   14    5    5    5
  108   1    5    6
  109   1   26    3
  110   2   15    4    7    4
  111   1    8    5
  112   4    6   14   20    4    9    3   15    2
  113   4    7    8   22    4   13    3   11    3
  114   1   16    3
  115   1    4   12
  116   1    9    3
  117   2    7    7   23    3
  118   4    5   11   31    3    6    3   24    2
  119   1   30    2
  120   2    6    9   11    3
  121   1    5   10
  122   1   24    3
  123   4    6    7   14    4   13    4   28    3
  124   2    6   10    7    4
  125   2    8   12    7    7
  126   4    4    8    8    7    7    6   15    2
  127   2    7   13    4    7
  128   1   15    4
  129   4   29    4    9    4   32    3   29    2
  130   4    7   14   12    7    7    7   12    2
  131   2   14    3   29    2
  132   1   17    3
  133   1    4    5
  134   1    6   14
  135   3    8   12    4    7   21    2
  136   4   11    8   30    4   22    4    7    4
  137   4    7    8    6    7   13    4   11    2
  138   2    5   13   28    4
  139   2    6   14    5    9
  140   3    8    9   27    4    5    2
  141   3    4    5   26    3   11    3
  142   4   14    6    9    5    5    4   22    3
  143   2    5    9   15    4
  144   4    5   11    7   10    6    8    7    4
  145   2   17    4   19    2
  146   2    6    8   16    6
  147   1   15    3
  148   2   15    4   14    4
  149   1   32    4
  150   2   13    6    7    6
  151   3    6    7   14    6    4    4
  152   1    6    6
  153   3    7   12   13    4    5    3
  154   4    4   13    5    5   16    3    7    3
  155   1    6   11
  156   2   24    4   28    3
  157   4    5   11    6   10   10    5   29    2
  158   4   10    8    7    6   15    4   13    4
  159   4    6   13    7    9   10    4   31    2
  160   3    8   12    5    5   10    2
  161   1   28    2
  162   3    7    9   10    6   13    3
  163   4    5   10    6    9    6    8   24    2
  164   3   13    7    9    5   22    3
  165   4   11    8    5    8    6    6   20    3
  166   2   10    6   20    3
  167   2    6   11    5    8
  168   1   15    4
  169   3    4    7    7    6   14    4
  170   3    5    7    9    5   18    4
  171   1    5    5
  172   1    7    5
  173   3    6    5   29    3   16    3
  174   3   11    8   23    4   16    3
  175   4    6    6    6    6   24    4   10    2
  176   1    5   11
  177   3   15    4   29    3    8    2
  178   1    6    5
  179   1   14    4
  180   1    7    5
  181   1   13    8
  182   2   11    5   31    3
  183   1   12    2
  184   2    5    9   10    7
  185   4    7   14    5    6    8    5   21    2
  186   4    5   14    8    6   30    4   14    4
  187   2   14    6   16    3
  188   3    7   12    7    5   14    4
  189   2   12    6    6    6
  190   2    6   12    5    6
  191   2   30    4   24    3
  192   3    6    5    6    5   27    3
  193   3    6   11   10    7   15    3
  194   3   21    4   18    3   13    3
  195   3    5   14   14    3    7    3
  196   2    7   13   17    2
  197   1   14    7
  198   4    6   11    5    8   25    3    4    3
  199   1   30    2
  200   1    7   13
  201   3    7    6   13    4   17    3
  202   1    6    5
  203   1    7   12
  204   1    6    6
  205   2    8    6    7    4
  206   1    6   13
  207   4    4   11   11    7   20    4    6    4
  208   2    7   13   14    4
  209   1   28    3
  210   1   30    2
  211   1   22    3
  212   1    7   11
  213   3    7    6   16    5    4    5
  214   3    6    7   29    4   12    4
  215   1   14    5
  216   3    6   13    5    5   13    3
  217   4   15    8    7    7    5    5    5    4
  218   1    6    7
  219   1    8    3
  220   2    6    5   29    3
  221   1    7   13
  222   3   12    5    6    4   16    2
  223   1    8   12
  224   3   11    7    4    4   20    2
  225   1    4    9
  226   4    6   10    5    4   19    3   19    2
  227   1   13    2
  228   3    7    6   11    5   16    3
  229   1    7    7
  230   3    6    8    5    6   11    4
  231   1    6    5
  232   2    6    6   14    4
  233   1    7    8
  234   1   16    3
  235   4    7    6   25    4   30    2   15    2
  236   4    5   10    8    6   16    4   15    4
  237   4    7    9    6    7    4    4   14    3
  238   3    8   14    5   12    6   11
  239   1    6   13
  240   1   27    3
  241   1    8    4
  242   1   17    4
  243   3    5   10   10    8   16    3
  244   4   10    6    9    5   22    3   13    3
  245   2    8    9    5    7
  246   4    5   13    6    8   11    5   12    3
  247   2    9    7   22    4
  248   1    7    4
  249   3    5   12   16    4   17    3
  250   3   12    6    6    5   28    2
  251   2    5    6    7    2
  252   3    4   11    9    7   20    2
  253   3    7    7    5    6    6    5
  254   2   16    4   15    3
  255   1    6   12



